NAME : EUR-5
TYPE : EUCLIDEAN
DIMENSION : 21
EDGE_WEIGHT_TYPE : EUC_2D
FLEET : 4
NODE_COORD_SECTION (CUSTOMER)
NODE	XCOORD	YCOORD	MINV	MAXV	SERV
1	37	52	0	12	0
2	49	49	1	1	3
3	52	64	1	1	4
4	20	26	2	4	2
5	40	30	1	1	3
6	21	47	1	1	4
7	17	63	1	1	2
8	31	62	2	4	5
9	52	33	1	1	3
10	51	21	1	1	5
11	42	41	1	1	5
12	31	32	2	4	3
13	5	25	4	4	2
14	12	42	1	1	3
15	36	16	1	1	3
16	52	41	1	3	3
17	27	23	2	2	1
18	17	33	1	1	1
19	13	13	1	1	1
20	57	58	2	2	3
21	62	42	1	1	4